
  12    4
  10   10   10   10

   0   0   0   0   0   6 2 3 4 5 6 11 
   2  10  10  10  10   3 10 9 8 
   6  10  10  10  10   2 10 7 
   7  10  10  10  10   2 10 8 
   5  10  10  10  10   2 9 8 
  10  10  10  10  10   2 9 8 
   7  10  10  10  10   1 8 
   7  10  10  10  10   1 12
  10  10  10  10  10   1 12
   3  10  10  10  10   1 12
   1  10  10  10  10   1 12
   0   0   0   0   0   0 
